0,211,63
1,685,219
2,421,269
3,157,361
4,178,371
5,513,440
6,754,463
7,444,486
8,673,525
9,504,540
10,396,567
11,344,606
12,117,486
13,868,644
14,916,652
15,1047,631
16,1184,781
17,136,656
18,677,702
19,868,758
20,881,816
21,571,783
22,450,875
23,147,877
24,196,931
25,635,868
26,698,939
27,140,161
28,954,353
29,704,446
30,1203,569
31,752,665
32,902,758
33,296,606
34,36,667
35,533,893
36,879,948
